KPT-Resolved Value to Generate K-Mesh: 0.015
0
Gamma
  27  27  13
0.0  0.0  0.0

