Zr2
   1.00000000000000
     3.2303432662313125    0.0000000573831506    0.0000000000000000
    -1.6151710338850933    2.7975588358914640    0.0000000000000000
     0.0000000000000000    0.0000000000000000    5.1687067464113108
   Zr
     2
Direct
  0.3333330000000032  0.6666669999999968  0.2500000000000000
  0.6666669999999968  0.3333330000000032  0.7500000000000000

  0.00000000E+00  0.00000000E+00  0.00000000E+00
  0.00000000E+00  0.00000000E+00  0.00000000E+00
