Al                                      
   4.0599999999999996     
     0.9949016101185780    0.0000000000000000   -0.0000000000000000
     0.0000000000000000    0.9949016101185780   -0.0000000000000000
     0.0000000000000000   -0.0000000000000000    0.9949016101185780
   Al
     4
Direct
  0.0000000000000000 -0.0000000000000000 -0.0000000000000000
  0.5000000000000000  0.5000000000000000 -0.0000000000000000
 -0.0000000000000000  0.5000000000000000  0.5000000000000000
  0.5000000000000000  0.0000000000000000  0.5000000000000000

  0.00000000E+00  0.00000000E+00  0.00000000E+00
  0.00000000E+00  0.00000000E+00  0.00000000E+00
  0.00000000E+00  0.00000000E+00  0.00000000E+00
  0.00000000E+00  0.00000000E+00  0.00000000E+00
